32681.1,39.97,44.02
29392.49,44.44,48.94
26454.99,49.37,54.37
29869.09,43.73,48.16
29231.62,44.68,49.21
29319.2,44.55,49.06
25137.54,51.96,57.22
31878.9,40.97,45.12
27958.27,46.72,51.45
26140.04,49.97,55.03
25045.81,52.15,57.43
28753.01,45.43,50.03
31163.45,41.91,46.16
28272.23,46.2,50.88
28642.47,45.6,50.22
25349.11,51.53,56.74
27847.58,46.9,51.65
33181.17,39.37,43.35
26208.89,49.84,54.88
25252.82,51.72,56.96
